121
0 117 84 47 70 119 46 88 68 106 
77 40 52 11 109 73 108 103 74 48 
90 113 92 25 6 45 89 4 8 57 
79 80 105 29 110 75 28 69 94 16 
66 42 31 27 96 32 19 36 43 12 
13 112 58 39 114 35 14 61 59 54 
82 107 86 38 63 87 97 99 76 5 
91 104 115 50 37 67 2 44 56 34 
20 85 72 120 78 64 30 62 81 60 
83 111 24 15 95 21 3 53 7 9 
118 51 26 18 41 116 33 10 1 65 
71 17 101 22 55 49 102 100 98 23 
93 
